GLPSOL--GLPK LP/MIP Solver 5.0
Parameter(s) specified in the command line:
 --lp ../modeles/10_484.lp --log 10_484.log
Reading problem data from '../modeles/10_484.lp'...
4881 rows, 9700 columns, 33910 non-zeros
4840 integer variables, all of which are binary
14597 lines were read
GLPK Integer Optimizer 5.0
4881 rows, 9700 columns, 33910 non-zeros
4840 integer variables, all of which are binary
Preprocessing...
4780 constraint coefficient(s) were reduced
4881 rows, 9690 columns, 33900 non-zeros
4840 integer variables, all of which are binary
Scaling...
 A: min|aij| =  6.830e-05  max|aij| =  4.000e+00  ratio =  5.856e+04
GM: min|aij| =  6.428e-02  max|aij| =  1.556e+01  ratio =  2.420e+02
EQ: min|aij| =  4.132e-03  max|aij| =  1.000e+00  ratio =  2.420e+02
2N: min|aij| =  3.906e-03  max|aij| =  1.768e+00  ratio =  4.526e+02
Constructing initial basis...
Size of triangular part is 4881
Solving LP relaxation...
GLPK Simplex Optimizer 5.0
4881 rows, 9690 columns, 33900 non-zeros
      0: obj =   2.000000000e+01 inf =   4.950e+01 (21)
Perturbing LP to avoid stalling [199]...
    269: obj =   3.782946134e-01 inf =   0.000e+00 (0)
Removing LP perturbation [811]...
*   811: obj =  -3.162069336e+00 inf =   6.482e-15 (0)
OPTIMAL LP SOLUTION FOUND
Integer optimization begins...
Long-step dual simplex will be used
+   811: mip =     not found yet >=              -inf        (1; 0)
+   969: >>>>>  -3.162069336e+00 >=  -3.162069336e+00 < 0.1% (158; 0)
+   969: mip =  -3.162069336e+00 >=     tree is empty   0.0% (0; 315)
INTEGER OPTIMAL SOLUTION FOUND
Time used:   1.6 secs
Memory used: 14.0 Mb (14729312 bytes)
